20 43
1 11
1 14
1 19
2 10
2 12
2 13
2 19
3 14
3 15
3 20
4 6
4 10
4 12
4 15
4 17
4 18
5 8
5 16
5 17
5 20
6 14
6 15
7 9
7 19
8 12
8 13
8 17
9 11
10 11
10 12
10 13
10 16
10 20
11 14
12 14
12 15
12 17
12 19
13 14
13 19
15 16
15 19
15 20
